Maximize
  .09 w1 + .092 w2 + .094 w3 + .096 w4 + 0.098 w5 + .1 w6 + .102 w7 + .104 w8 + .106 w9 + 0.11 w10
Subject To
  weight: w1 + w2 + w3 + w4 + w5 + w6 + w7 + w8 + w9 + w10 = 1000
  beta: .16 w1 + .17 w2 + .165 w3 + .167 w4 + .17 w5 + .18 w6 + .185 w7 + .182 w8 + .183 w9 + 0.184 w10 <= 180
Bounds
  10 < w1 < 1000
  10 < w2 < 1000 
  10 < w3 < 1000
  10 < w4 < 1000
  10 < w5 < 1000
  10 < w6 < 1000
  10 < w7 < 1000
  10 < w8 < 1000
  10 < w9 < 1000
  10 < w10 < 1000   
Integers
  w1 w2 w3 w4 w5 w6 w7 w8 w9 w10
End
